
Gurobi 11.0.2 (linux64) logging started Tue 03 Dec 2024 09:00:55 AM CET

Set parameter LogFile to value "./res/knapPI_11_20_1000/knapPI_11_20_1000_54/grb_dom.log"
Set parameter Presolve to value 0
Set parameter Aggregate to value 0
Set parameter Heuristics to value 0
Set parameter LPWarmStart to value 0
Set parameter NLPHeur to value 0
Set parameter PreDepRow to value 0
Set parameter PreDual to value 0
Set parameter RINS to value 0
Set parameter Symmetry to value 0
Set parameter NodeLimit to value 1
Set parameter Threads to value 1

Gurobi 11.0.2 (linux64) logging started Tue 03 Dec 2024 09:00:55 AM CET

Set parameter LogFile to value "./res/knapPI_11_20_1000/knapPI_11_20_1000_54/grb_dom.log"
Set parameter NLPHeur to value 0
Set parameter LPWarmStart to value 0
Set parameter PreDepRow to value 0
Set parameter Symmetry to value 0
Set parameter Presolve to value 0
Gurobi Optimizer version 11.0.2 build v11.0.2rc0 (linux64 - "Pop!_OS 20.04 LTS")

CPU model: Intel(R) Core(TM) i7-8650U CPU @ 1.90GHz, instruction set [SSE2|AVX|AVX2]
Thread count: 4 physical cores, 4 logical processors, using up to 1 threads

Optimize a model with 1247 rows, 20 columns and 10003 nonzeros
Model fingerprint: 0xe419831d
Variable types: 0 continuous, 20 integer (20 binary)
Coefficient statistics:
  Matrix range     [1e+00, 2e+03]
  Objective range  [2e+02, 2e+03]
  Bounds range     [0e+00, 0e+00]
  RHS range        [1e+04, 1e+04]
Variable types: 0 continuous, 20 integer (20 binary)

Root relaxation: objective 9.608124e+03, 29 iterations, 0.00 seconds (0.00 work units)

    Nodes    |    Current Node    |     Objective Bounds      |     Work
 Expl Unexpl |  Obj  Depth IntInf | Incumbent    BestBd   Gap | It/Node Time

     0     0 9608.12360    0    1          - 9608.12360      -     -    0s
     0     0 9608.12360    0    1          - 9608.12360      -     -    0s
     0     0 9608.12360    0    2          - 9608.12360      -     -    0s
     0     0 9608.12360    0    2          - 9608.12360      -     -    0s
     0     0 9608.12360    0    3          - 9608.12360      -     -    0s
     0     0 9608.12360    0    3          - 9608.12360      -     -    0s
     0     0 9608.12360    0    3          - 9608.12360      -     -    0s
     0     0 9608.12360    0    3          - 9608.12360      -     -    0s
     0     0 9608.12360    0    5          - 9608.12360      -     -    0s
     0     0 9608.12360    0    5          - 9608.12360      -     -    0s
     0     0 9608.12360    0    1          - 9608.12360      -     -    0s
     0     0 9608.12360    0    1          - 9608.12360      -     -    0s
     0     2 9608.12360    0    1          - 9608.12360      -     -    0s

Cutting planes:
  Cover: 3
  StrongCG: 1

Explored 1 nodes (44 simplex iterations) in 0.23 seconds (0.09 work units)
Thread count was 1 (of 4 available processors)

Solution count 0

Node limit reached
Best objective -, best bound 9.606000000000e+03, gap -

User-callback calls 279, time in user-callback 0.00 sec
opt = false
obj = 9608.1236
nb_dom_cuts = 1246
solved_time = 0.2352
opt_val = 9570.0
